F=506;
S=14;
M=5;
A=[1,3,10,70,500];
B=[-0,0.66,5.35,59.35,489.35];
Si=[{0,4,1},
    {0,2},
    {0,10},
    {0,10},
    {0,4,3},
    {0,4},
    {0,10,5},
    {0,10,6},
    {0,2,7},
    {0,2},
    {0,4,1,8},
    {0,4,1,9},
    {0,2},
    {0,10,6},
    {0,10},
    {0,4,11},
    {0,4,1,12},
    {0,4},
    {0,4,11,13},
    {0,2},
    {0,4,1,8},
    {0,4,1},
    {1,4,0},
    {1,4,0,2},
    {1},
    {1,10},
    {1,4,3},
    {1,4},
    {1,10,5},
    {1,10,6},
    {1,8,7},
    {1,8,7},
    {1,8},
    {1,9},
    {1,9},
    {1,10,6},
    {1,10},
    {1,4,11},
    {1,12},
    {1,4},
    {1,4,11,13},
    {1,4},
    {1,8},
    {1},
    {2,0},
    {2,0,4,1},
    {2,0,10},
    {2,0,10},
    {2,0,4,3},
    {2,0,4},
    {2,0,10,5},
    {2,0,10,6},
    {2,7},
    {2},
    {2,7,8},
    {2,9},
    {2},
    {2,0,10,6},
    {2,0,10},
    {2,7,11},
    {2,12},
    {2,0,4},
    {2,7,11,13},
    {2},
    {2,7,8},
    {2,7,11},
    {10,0},
    {1},
    {10,0,2},
    {10},
    {1,4,3},
    {1,4},
    {10,5},
    {10,6},
    {10,7},
    {10,7},
    {1,8},
    {1,9},
    {1,9},
    {10,6},
    {10},
    {1,4,11},
    {1,12},
    {1,4},
    {10,6,13},
    {1,4},
    {1,8},
    {1},
    {10,0},
    {10,1},
    {10,0,2},
    {10},
    {10,0,4,3},
    {10,0,4},
    {5},
    {5,6},
    {10,7},
    {10,7},
    {10,7,8},
    {10,1,9},
    {10,0,2},
    {5,6},
    {10},
    {10,7,11},
    {10,1,12},
    {10,0,4},
    {5,6,13},
    {10,0,2},
    {10,7,8},
    {10,1},
    {3,4,0},
    {3,4,1},
    {3,4,0,2},
    {3,4,1},
    {3,4,0,10},
    {3,4},
    {3,4,0,10,5},
    {3,4,0,10,6},
    {3,4,11,7},
    {3,4,0,2},
    {3,4,1,8},
    {3,9},
    {3,9},
    {3,4,11,13},
    {3,4,0,10},
    {3,4,11},
    {3,4,1,12},
    {3},
    {3,4,11,13},
    {3,4},
    {3,4,1,8},
    {3,4,1},
    {4,0},
    {4,1},
    {4,0,2},
    {4,1},
    {4,0,10},
    {4,3},
    {4,0,10,5},
    {4,0,10,6},
    {4,11,7},
    {4,0,2},
    {4,1,8},
    {4,1,9},
    {4,0,2},
    {4,11,13},
    {4,0,10},
    {4,11},
    {4,1,12},
    {4},
    {4,11,13},
    {4},
    {4,1,8},
    {4,1},
    {5,10,0},
    {5,10,1},
    {5,10,0,2},
    {5,10},
    {5},
    {5,10,0,4,3},
    {5,10,0,4},
    {5,6},
    {5,10,7},
    {5,10,7},
    {5,10,7,8},
    {5,10,1,9},
    {5,10,0,2},
    {5,6},
    {5,10},
    {5,10,7,11},
    {5,10,1,12},
    {5,10,0,4},
    {5,6,13},
    {5,10,0,2},
    {5,6,13},
    {5,10,1},
    {6,10,0},
    {6,10,1},
    {6,10,0,2},
    {6,10},
    {6,5},
    {6,10,0,4,3},
    {6,10,0,4},
    {6,5},
    {6,10,7},
    {6,10,7},
    {6,10,7,8},
    {6,10,1,9},
    {6,10,0,2},
    {6},
    {6,10},
    {6,10,7,11},
    {6,10,1,12},
    {6,10,0,4},
    {6,13},
    {6,10,0,2},
    {6,13},
    {6,10,1},
    {7,2,0},
    {7,8,1},
    {7,2},
    {7,10},
    {7,10},
    {7,11,4,3},
    {7,11,4},
    {7,10,5},
    {7,10,6},
    {7},
    {7,8},
    {7,11,9},
    {7,2},
    {7,10,6},
    {7,10},
    {7,11},
    {7,8,1,12},
    {7,11,4},
    {7,11,13},
    {7,2},
    {7,8},
    {7,11},
    {2,0},
    {7,8,1},
    {2},
    {7,10},
    {7,10},
    {2,0,4,3},
    {2,0,4},
    {7,10,5},
    {7,10,6},
    {7},
    {7,8},
    {2,9},
    {2},
    {7,10,6},
    {7,10},
    {7,11},
    {2,12},
    {2,0,4},
    {7,11,13},
    {2},
    {7,8},
    {7,11},
    {8,1,4,0},
    {8,1},
    {8,7,2},
    {8,1},
    {8,7,10},
    {8,1,4,3},
    {8,1,4},
    {8,7,10,5},
    {8,7,10,6},
    {8,7},
    {8,7},
    {8,1,9},
    {8,7,2},
    {8,13},
    {8,7,10},
    {8,7,11},
    {8,1,12},
    {8,1,4},
    {8,13},
    {8,1,4},
    {8},
    {8,1},
    {9,1,4,0},
    {9,1},
    {9,2},
    {9,1},
    {9,1,10},
    {9,3},
    {9,1,4},
    {9,1,10,5},
    {9,1,10,6},
    {9,11,7},
    {9,2},
    {9,1,8},
    {9},
    {9,11,13},
    {9,1,10},
    {9,11},
    {9,1,12},
    {9},
    {9,11,13},
    {9,1,4},
    {9,1,8},
    {9,1},
    {2,0},
    {9,1},
    {2},
    {9,1},
    {2,0,10},
    {9,3},
    {2,0,4},
    {2,0,10,5},
    {2,0,10,6},
    {2,7},
    {2},
    {2,7,8},
    {9},
    {9,11,13},
    {2,0,10},
    {9,11},
    {9,1,12},
    {9},
    {9,11,13},
    {2},
    {2,7,8},
    {9,1},
    {6,10,0},
    {6,10,1},
    {6,10,0,2},
    {6,10},
    {6,5},
    {13,11,4,3},
    {13,11,4},
    {6,5},
    {6},
    {6,10,7},
    {6,10,7},
    {13,8},
    {13,11,9},
    {13,11,9},
    {6,10},
    {13,11},
    {6,10,1,12},
    {13,11,4},
    {13},
    {13,11,4},
    {13},
    {13,11},
    {10,0},
    {10,1},
    {10,0,2},
    {10},
    {10},
    {10,0,4,3},
    {10,0,4},
    {10,5},
    {10,6},
    {10,7},
    {10,7},
    {10,7,8},
    {10,1,9},
    {10,0,2},
    {10,6},
    {10,7,11},
    {10,1,12},
    {10,0,4},
    {10,6,13},
    {10,0,2},
    {10,7,8},
    {10,1},
    {11,4,0},
    {11,4,1},
    {11,7,2},
    {11,4,1},
    {11,7,10},
    {11,4,3},
    {11,4},
    {11,7,10,5},
    {11,7,10,6},
    {11,7},
    {11,7},
    {11,7,8},
    {11,9},
    {11,9},
    {11,13},
    {11,7,10},
    {11,4,1,12},
    {11,4},
    {11,13},
    {11,4},
    {11,13},
    {11},
    {12,1,4,0},
    {12,1},
    {12,2},
    {12,1},
    {12,1,10},
    {12,1,4,3},
    {12,1,4},
    {12,1,10,5},
    {12,1,10,6},
    {12,1,8,7},
    {12,2},
    {12,1,8},
    {12,1,9},
    {12,1,9},
    {12,1,10,6},
    {12,1,10},
    {12,1,4,11},
    {12,1,4},
    {12,1,4,11,13},
    {12},
    {12,1,8},
    {12,1},
    {4,0},
    {4,1},
    {4,0,2},
    {4,1},
    {4,0,10},
    {3},
    {4},
    {4,0,10,5},
    {4,0,10,6},
    {4,11,7},
    {4,0,2},
    {4,1,8},
    {9},
    {9},
    {4,11,13},
    {4,0,10},
    {4,11},
    {4,1,12},
    {4,11,13},
    {4},
    {4,1,8},
    {4,1},
    {13,11,4,0},
    {13,11,4,1},
    {13,11,7,2},
    {13,6,10},
    {13,6,5},
    {13,11,4,3},
    {13,11,4},
    {13,6,5},
    {13,6},
    {13,11,7},
    {13,11,7},
    {13,8},
    {13,11,9},
    {13,11,9},
    {13},
    {13,6,10},
    {13,11},
    {13,11,4,1,12},
    {13,11,4},
    {13,11,4},
    {13},
    {13,11},
    {2,0},
    {4,1},
    {2},
    {4,1},
    {2,0,10},
    {4,3},
    {4},
    {2,0,10,5},
    {2,0,10,6},
    {2,7},
    {2},
    {4,1,8},
    {4,1,9},
    {2},
    {4,11,13},
    {2,0,10},
    {4,11},
    {12},
    {4},
    {4,11,13},
    {4,1,8},
    {4,1},
    {8,1,4,0},
    {8,1},
    {8,7,2},
    {8,1},
    {8,7,10},
    {8,1,4,3},
    {8,1,4},
    {13,6,5},
    {13,6},
    {8,7},
    {8,7},
    {8},
    {8,1,9},
    {8,7,2},
    {13},
    {8,7,10},
    {13,11},
    {8,1,12},
    {8,1,4},
    {13},
    {8,1,4},
    {8,1},
    {1,4,0},
    {1},
    {11,7,2},
    {1},
    {1,10},
    {1,4,3},
    {1,4},
    {1,10,5},
    {1,10,6},
    {11,7},
    {11,7},
    {1,8},
    {1,9},
    {1,9},
    {11,13},
    {1,10},
    {11},
    {1,12},
    {1,4},
    {11,13},
    {1,4},
    {1,8}];
weight=[292,256,242,268,291,246,283,249,220,230,298,234,262,245,208,232,263,207,243,266,206,215,300,225,271,240,238,201,283,209,269,239,274,235,216,265,219,210,299,238,226,200,248,243,245,257,202,259,286,271,212,287,276,225,243,254,238,289,292,235,203,223,231,242,229,266,231,278,228,291,268,256,273,273,217,271,255,300,232,244,289,224,249,219,213,253,206,282,291,226,214,261,235,242,284,250,254,242,295,200,264,207,278,267,255,293,248,300,246,249,300,268,229,279,226,246,220,251,207,241,235,289,204,211,278,227,296,260,263,252,210,219,257,253,296,271,299,273,299,247,211,247,239,231,279,230,285,254,243,222,234,203,297,298,288,245,252,274,227,258,247,273,270,217,271,232,229,258,211,213,296,273,226,228,295,220,262,300,295,257,230,283,227,278,234,278,235,265,201,207,241,269,290,281,223,290,219,257,241,297,254,241,271,245,267,230,277,241,289,259,291,267,211,274,229,271,217,271,205,220,247,234,225,278,244,207,258,218,279,256,276,252,255,262,262,214,239,250,242,204,296,244,267,247,235,273,266,269,278,237,255,253,276,260,202,232,222,287,206,206,234,213,281,255,248,277,240,219,223,270,276,298,299,230,214,291,221,233,295,215,284,219,247,296,220,282,249,285,222,209,292,263,246,250,270,250,258,206,286,208,256,275,276,299,273,284,202,293,229,256,227,290,248,215,230,258,201,258,209,278,254,244,267,280,293,240,213,215,287,255,210,253,290,212,281,268,265,221,287,255,238,264,259,203,290,284,296,277,225,218,207,298,242,300,229,297,259,270,238,266,252,284,208,215,266,250,238,249,207,211,280,241,279,297,259,244,278,215,239,223,282,249,213,218,207,240,292,205,230,280,299,215,240,291,258,294,262,234,203,294,237,287,239,299,225,272,214,246,248,292,264,271,230,270,295,251,211,226,205,238,297,203,202,281,257,233,210,207,296,234,268,284,296,252,215,277,237,202,299,202,247,280,290,234,268,254,257,295,231,264,297,221,209,299,233,263,284,204,238,246,255,207,250,269,246,295,221,255,233,218,277,262,267,205,234,261,267,295,244,292,232,245,292,300,209,273,257,257,210,294,256,286,282,262,213,219,271,263,296,205,220,269,250,212,219,300];
N=[8013,10776,9101,8543,38508,4856,373,7423,6814,3448,9814,18326,3690,9865];
